90 4005
1 2 219
1 3 7
1 4 165
1 5 193
1 6 268
1 7 114
1 8 19
1 9 159
1 10 55
1 11 91
1 12 73
1 13 224
1 14 181
1 15 8
1 16 158
1 17 207
1 18 104
1 19 186
1 20 202
1 21 22
1 22 131
1 23 219
1 24 199
1 25 55
1 26 241
1 27 210
1 28 207
1 29 30
1 30 60
1 31 226
1 32 31
1 33 210
1 34 108
1 35 80
1 36 193
1 37 220
1 38 99
1 39 95
1 40 235
1 41 216
1 42 239
1 43 117
1 44 110
1 45 153
1 46 211
1 47 186
1 48 98
1 49 57
1 50 57
1 51 83
1 52 36
1 53 236
1 54 63
1 55 202
1 56 1
1 57 72
1 58 57
1 59 34
1 60 245
1 61 206
1 62 184
1 63 205
1 64 214
1 65 84
1 66 91
1 67 268
1 68 218
1 69 201
1 70 250
1 71 119
1 72 115
1 73 249
1 74 94
1 75 117
1 76 32
1 77 230
1 78 78
1 79 171
1 80 124
1 81 76
1 82 45
1 83 7
1 84 61
1 85 196
1 86 153
1 87 116
1 88 247
1 89 179
1 90 107
2 3 101
2 4 31
2 5 231
2 6 68
2 7 207
2 8 251
2 9 260
2 10 105
2 11 134
2 12 94
2 13 211
2 14 130
2 15 134
2 16 123
2 17 242
2 18 25
2 19 145
2 20 263
2 21 178
2 22 224
2 23 128
2 24 176
2 25 67
2 26 123
2 27 61
2 28 138
2 29 121
2 30 115
2 31 235
2 32 241
2 33 109
2 34 1
2 35 180
2 36 186
2 37 74
2 38 89
2 39 234
2 40 64
2 41 134
2 42 205
2 43 258
2 44 64
2 45 75
2 46 94
2 47 97
2 48 148
2 49 81
2 50 156
2 51 83
2 52 155
2 53 164
2 54 250
2 55 219
2 56 244
2 57 249
2 58 38
2 59 60
2 60 145
2 61 184
2 62 263
2 63 191
2 64 127
2 65 63
2 66 164
2 67 87
2 68 113
2 69 122
2 70 70
2 71 156
2 72 244
2 73 24
2 74 125
2 75 31
2 76 5
2 77 208
2 78 115
2 79 80
2 80 190
2 81 244
2 82 248
2 83 35
2 84 50
2 85 33
2 86 136
2 87 189
2 88 255
2 89 189
2 90 184
3 4 17
3 5 89
3 6 92
3 7 122
3 8 189
3 9 241
3 10 170
3 11 113
3 12 180
3 13 86
3 14 248
3 15 80
3 16 254
3 17 32
3 18 191
3 19 59
3 20 186
3 21 40
3 22 81
3 23 103
3 24 229
3 25 24
3 26 52
3 27 127
3 28 17
3 29 152
3 30 67
3 31 236
3 32 11
3 33 17
3 34 211
3 35 39
3 36 207
3 37 162
3 38 124
3 39 258
3 40 215
3 41 266
3 42 115
3 43 229
3 44 249
3 45 81
3 46 109
3 47 187
3 48 183
3 49 90
3 50 88
3 51 160
3 52 21
3 53 206
3 54 211
3 55 53
3 56 162
3 57 241
3 58 89
3 59 100
3 60 198
3 61 30
3 62 32
3 63 207
3 64 123
3 65 216
3 66 63
3 67 40
3 68 59
3 69 27
3 70 235
3 71 72
3 72 53
3 73 79
3 74 220
3 75 175
3 76 41
3 77 69
3 78 68
3 79 111
3 80 58
3 81 182
3 82 5
3 83 10
3 84 142
3 85 70
3 86 27
3 87 23
3 88 72
3 89 126
3 90 240
4 5 269
4 6 21
4 7 240
4 8 59
4 9 179
4 10 37
4 11 65
4 12 61
4 13 129
4 14 95
4 15 224
4 16 241
4 17 258
4 18 180
4 19 262
4 20 164
4 21 228
4 22 180
4 23 246
4 24 37
4 25 85
4 26 89
4 27 174
4 28 86
4 29 41
4 30 29
4 31 167
4 32 109
4 33 105
4 34 79
4 35 11
4 36 178
4 37 22
4 38 36
4 39 24
4 40 24
4 41 261
4 42 121
4 43 8
4 44 41
4 45 28
4 46 249
4 47 146
4 48 82
4 49 257
4 50 97
4 51 33
4 52 78
4 53 220
4 54 6
4 55 245
4 56 104
4 57 153
4 58 4
4 59 267
4 60 97
4 61 76
4 62 121
4 63 3
4 64 243
4 65 173
4 66 63
4 67 81
4 68 50
4 69 259
4 70 157
4 71 254
4 72 103
4 73 142
4 74 255
4 75 130
4 76 5
4 77 262
4 78 44
4 79 233
4 80 156
4 81 180
4 82 156
4 83 25
4 84 88
4 85 228
4 86 260
4 87 38
4 88 189
4 89 10
4 90 198
5 6 89
5 7 94
5 8 175
5 9 197
5 10 172
5 11 57
5 12 195
5 13 58
5 14 135
5 15 98
5 16 250
5 17 61
5 18 241
5 19 10
5 20 219
5 21 66
5 22 101
5 23 9
5 24 47
5 25 45
5 26 121
5 27 190
5 28 227
5 29 146
5 30 149
5 31 102
5 32 164
5 33 211
5 34 78
5 35 74
5 36 98
5 37 76
5 38 237
5 39 66
5 40 251
5 41 52
5 42 163
5 43 193
5 44 200
5 45 242
5 46 187
5 47 60
5 48 222
5 49 6
5 50 54
5 51 215
5 52 100
5 53 162
5 54 252
5 55 48
5 56 240
5 57 124
5 58 49
5 59 54
5 60 265
5 61 260
5 62 206
5 63 151
5 64 134
5 65 168
5 66 150
5 67 77
5 68 161
5 69 107
5 70 169
5 71 39
5 72 202
5 73 230
5 74 74
5 75 164
5 76 177
5 77 150
5 78 2
5 79 210
5 80 78
5 81 96
5 82 77
5 83 229
5 84 19
5 85 21
5 86 60
5 87 28
5 88 27
5 89 86
5 90 264
6 7 201
6 8 75
6 9 261
6 10 24
6 11 257
6 12 47
6 13 183
6 14 233
6 15 251
6 16 102
6 17 4
6 18 195
6 19 251
6 20 218
6 21 29
6 22 67
6 23 202
6 24 182
6 25 165
6 26 40
6 27 159
6 28 175
6 29 108
6 30 131
6 31 153
6 32 159
6 33 143
6 34 74
6 35 19
6 36 233
6 37 45
6 38 232
6 39 193
6 40 113
6 41 173
6 42 41
6 43 24
6 44 114
6 45 149
6 46 155
6 47 68
6 48 148
6 49 55
6 50 221
6 51 74
6 52 113
6 53 244
6 54 131
6 55 62
6 56 140
6 57 255
6 58 267
6 59 13
6 60 16
6 61 125
6 62 30
6 63 112
6 64 99
6 65 257
6 66 145
6 67 172
6 68 214
6 69 157
6 70 179
6 71 86
6 72 142
6 73 234
6 74 41
6 75 266
6 76 177
6 77 166
6 78 11
6 79 130
6 80 263
6 81 21
6 82 101
6 83 40
6 84 124
6 85 17
6 86 257
6 87 201
6 88 140
6 89 118
6 90 25
7 8 186
7 9 129
7 10 202
7 11 154
7 12 53
7 13 27
7 14 62
7 15 225
7 16 122
7 17 120
7 18 46
7 19 124
7 20 32
7 21 100
7 22 167
7 23 146
7 24 212
7 25 68
7 26 68
7 27 216
7 28 182
7 29 208
7 30 205
7 31 11
7 32 242
7 33 185
7 34 16
7 35 38
7 36 224
7 37 200
7 38 178
7 39 116
7 40 179
7 41 129
7 42 144
7 43 17
7 44 54
7 45 72
7 46 13
7 47 218
7 48 108
7 49 220
7 50 231
7 51 161
7 52 205
7 53 147
7 54 125
7 55 179
7 56 44
7 57 205
7 58 153
7 59 138
7 60 171
7 61 151
7 62 70
7 63 76
7 64 226
7 65 268
7 66 213
7 67 156
7 68 220
7 69 119
7 70 99
7 71 251
7 72 252
7 73 259
7 74 78
7 75 253
7 76 131
7 77 139
7 78 133
7 79 191
7 80 118
7 81 175
7 82 133
7 83 120
7 84 82
7 85 251
7 86 160
7 87 6
7 88 238
7 89 204
7 90 149
8 9 166
8 10 231
8 11 198
8 12 66
8 13 239
8 14 238
8 15 89
8 16 17
8 17 205
8 18 12
8 19 62
8 20 44
8 21 243
8 22 263
8 23 34
8 24 96
8 25 226
8 26 113
8 27 77
8 28 56
8 29 185
8 30 218
8 31 155
8 32 186
8 33 131
8 34 12
8 35 39
8 36 80
8 37 15
8 38 1
8 39 17
8 40 196
8 41 65
8 42 101
8 43 125
8 44 139
8 45 197
8 46 36
8 47 129
8 48 83
8 49 63
8 50 122
8 51 257
8 52 155
8 53 237
8 54 175
8 55 118
8 56 220
8 57 58
8 58 242
8 59 129
8 60 130
8 61 100
8 62 168
8 63 204
8 64 65
8 65 165
8 66 60
8 67 50
8 68 46
8 69 81
8 70 228
8 71 159
8 72 87
8 73 51
8 74 37
8 75 268
8 76 33
8 77 211
8 78 126
8 79 202
8 80 15
8 81 45
8 82 59
8 83 212
8 84 217
8 85 11
8 86 92
8 87 149
8 88 257
8 89 232
8 90 63
9 10 104
9 11 169
9 12 18
9 13 55
9 14 253
9 15 230
9 16 12
9 17 235
9 18 68
9 19 72
9 20 185
9 21 254
9 22 148
9 23 107
9 24 230
9 25 97
9 26 96
9 27 261
9 28 102
9 29 131
9 30 147
9 31 161
9 32 252
9 33 67
9 34 30
9 35 134
9 36 225
9 37 65
9 38 101
9 39 27
9 40 37
9 41 117
9 42 11
9 43 239
9 44 13
9 45 55
9 46 138
9 47 269
9 48 64
9 49 48
9 50 238
9 51 172
9 52 43
9 53 109
9 54 196
9 55 193
9 56 125
9 57 209
9 58 98
9 59 32
9 60 70
9 61 120
9 62 211
9 63 106
9 64 76
9 65 194
9 66 33
9 67 134
9 68 252
9 69 176
9 70 151
9 71 43
9 72 88
9 73 31
9 74 77
9 75 120
9 76 139
9 77 100
9 78 117
9 79 23
9 80 149
9 81 243
9 82 2
9 83 190
9 84 174
9 85 6
9 86 248
9 87 83
9 88 135
9 89 107
9 90 47
10 11 249
10 12 159
10 13 125
10 14 118
10 15 112
10 16 218
10 17 83
10 18 165
10 19 135
10 20 202
10 21 124
10 22 247
10 23 164
10 24 104
10 25 96
10 26 36
10 27 197
10 28 17
10 29 118
10 30 122
10 31 45
10 32 40
10 33 261
10 34 158
10 35 159
10 36 266
10 37 238
10 38 29
10 39 31
10 40 91
10 41 145
10 42 176
10 43 13
10 44 45
10 45 170
10 46 11
10 47 182
10 48 10
10 49 184
10 50 179
10 51 153
10 52 242
10 53 155
10 54 66
10 55 249
10 56 24
10 57 200
10 58 68
10 59 140
10 60 224
10 61 104
10 62 231
10 63 139
10 64 53
10 65 124
10 66 78
10 67 249
10 68 8
10 69 148
10 70 211
10 71 177
10 72 60
10 73 156
10 74 116
10 75 229
10 76 233
10 77 182
10 78 18
10 79 128
10 80 39
10 81 29
10 82 189
10 83 148
10 84 107
10 85 232
10 86 65
10 87 48
10 88 186
10 89 235
10 90 104
11 12 55
11 13 147
11 14 3
11 15 53
11 16 39
11 17 99
11 18 36
11 19 263
11 20 200
11 21 104
11 22 230
11 23 78
11 24 120
11 25 89
11 26 22
11 27 156
11 28 16
11 29 27
11 30 66
11 31 185
11 32 20
11 33 268
11 34 178
11 35 108
11 36 199
11 37 9
11 38 150
11 39 167
11 40 233
11 41 77
11 42 206
11 43 38
11 44 226
11 45 185
11 46 10
11 47 157
11 48 214
11 49 91
11 50 30
11 51 38
11 52 83
11 53 62
11 54 148
11 55 116
11 56 31
11 57 26
11 58 162
11 59 144
11 60 252
11 61 203
11 62 246
11 63 242
11 64 195
11 65 125
11 66 13
11 67 219
11 68 13
11 69 142
11 70 222
11 71 163
11 72 135
11 73 105
11 74 64
11 75 247
11 76 99
11 77 214
11 78 170
11 79 252
11 80 60
11 81 84
11 82 15
11 83 17
11 84 69
11 85 3
11 86 74
11 87 250
11 88 266
11 89 25
11 90 118
12 13 147
12 14 109
12 15 179
12 16 130
12 17 254
12 18 35
12 19 13
12 20 6
12 21 191
12 22 57
12 23 257
12 24 115
12 25 149
12 26 82
12 27 64
12 28 207
12 29 194
12 30 31
12 31 93
12 32 169
12 33 251
12 34 131
12 35 118
12 36 141
12 37 24
12 38 136
12 39 222
12 40 38
12 41 193
12 42 214
12 43 33
12 44 180
12 45 231
12 46 165
12 47 220
12 48 2
12 49 101
12 50 253
12 51 61
12 52 12
12 53 219
12 54 16
12 55 187
12 56 222
12 57 30
12 58 102
12 59 27
12 60 263
12 61 1
12 62 102
12 63 31
12 64 62
12 65 111
12 66 129
12 67 254
12 68 198
12 69 215
12 70 10
12 71 239
12 72 122
12 73 36
12 74 54
12 75 192
12 76 160
12 77 177
12 78 162
12 79 144
12 80 202
12 81 32
12 82 190
12 83 38
12 84 186
12 85 99
12 86 45
12 87 4
12 88 196
12 89 122
12 90 223
13 14 72
13 15 9
13 16 34
13 17 234
13 18 106
13 19 247
13 20 174
13 21 236
13 22 68
13 23 245
13 24 82
13 25 201
13 26 15
13 27 14
13 28 198
13 29 68
13 30 38
13 31 259
13 32 37
13 33 152
13 34 127
13 35 241
13 36 222
13 37 82
13 38 114
13 39 264
13 40 23
13 41 163
13 42 84
13 43 253
13 44 77
13 45 229
13 46 242
13 47 244
13 48 28
13 49 79
13 50 28
13 51 41
13 52 179
13 53 67
13 54 98
13 55 55
13 56 269
13 57 167
13 58 47
13 59 224
13 60 97
13 61 87
13 62 123
13 63 145
13 64 148
13 65 127
13 66 202
13 67 65
13 68 204
13 69 136
13 70 41
13 71 71
13 72 198
13 73 205
13 74 206
13 75 162
13 76 63
13 77 53
13 78 240
13 79 244
13 80 254
13 81 247
13 82 128
13 83 139
13 84 4
13 85 159
13 86 188
13 87 142
13 88 5
13 89 14
13 90 72
14 15 95
14 16 30
14 17 177
14 18 153
14 19 107
14 20 207
14 21 56
14 22 21
14 23 221
14 24 173
14 25 190
14 26 147
14 27 108
14 28 136
14 29 264
14 30 90
14 31 9
14 32 190
14 33 138
14 34 100
14 35 84
14 36 265
14 37 217
14 38 32
14 39 188
14 40 269
14 41 3
14 42 29
14 43 14
14 44 112
14 45 251
14 46 131
14 47 19
14 48 254
14 49 226
14 50 23
14 51 75
14 52 91
14 53 192
14 54 133
14 55 85
14 56 65
14 57 94
14 58 201
14 59 54
14 60 186
14 61 122
14 62 222
14 63 109
14 64 115
14 65 241
14 66 99
14 67 81
14 68 216
14 69 197
14 70 130
14 71 120
14 72 62
14 73 162
14 74 77
14 75 256
14 76 81
14 77 56
14 78 64
14 79 146
14 80 178
14 81 213
14 82 11
14 83 161
14 84 239
14 85 269
14 86 30
14 87 230
14 88 135
14 89 220
14 90 239
15 16 127
15 17 45
15 18 23
15 19 195
15 20 112
15 21 204
15 22 71
15 23 209
15 24 235
15 25 12
15 26 36
15 27 50
15 28 116
15 29 48
15 30 26
15 31 84
15 32 90
15 33 112
15 34 98
15 35 105
15 36 149
15 37 233
15 38 15
15 39 153
15 40 155
15 41 35
15 42 251
15 43 239
15 44 268
15 45 35
15 46 39
15 47 254
15 48 17
15 49 161
15 50 163
15 51 35
15 52 236
15 53 262
15 54 162
15 55 268
15 56 116
15 57 114
15 58 115
15 59 209
15 60 163
15 61 239
15 62 79
15 63 17
15 64 144
15 65 140
15 66 139
15 67 266
15 68 236
15 69 44
15 70 249
15 71 251
15 72 219
15 73 62
15 74 261
15 75 209
15 76 231
15 77 208
15 78 82
15 79 192
15 80 244
15 81 222
15 82 170
15 83 224
15 84 217
15 85 16
15 86 38
15 87 238
15 88 75
15 89 146
15 90 161
16 17 238
16 18 48
16 19 84
16 20 29
16 21 207
16 22 231
16 23 21
16 24 163
16 25 220
16 26 151
16 27 190
16 28 120
16 29 233
16 30 161
16 31 97
16 32 34
16 33 102
16 34 21
16 35 34
16 36 210
16 37 10
16 38 115
16 39 132
16 40 175
16 41 32
16 42 205
16 43 219
16 44 35
16 45 69
16 46 189
16 47 169
16 48 147
16 49 31
16 50 0
16 51 246
16 52 8
16 53 58
16 54 171
16 55 178
16 56 70
16 57 141
16 58 32
16 59 245
16 60 198
16 61 0
16 62 30
16 63 39
16 64 88
16 65 125
16 66 1
16 67 222
16 68 61
16 69 164
16 70 115
16 71 64
16 72 148
16 73 241
16 74 73
16 75 242
16 76 165
16 77 24
16 78 145
16 79 140
16 80 210
16 81 94
16 82 16
16 83 77
16 84 258
16 85 235
16 86 17
16 87 46
16 88 80
16 89 57
16 90 250
17 18 188
17 19 119
17 20 171
17 21 6
17 22 195
17 23 111
17 24 236
17 25 96
17 26 217
17 27 262
17 28 214
17 29 19
17 30 144
17 31 199
17 32 150
17 33 243
17 34 36
17 35 140
17 36 96
17 37 229
17 38 11
17 39 211
17 40 228
17 41 111
17 42 61
17 43 3
17 44 268
17 45 58
17 46 132
17 47 98
17 48 137
17 49 179
17 50 170
17 51 78
17 52 95
17 53 44
17 54 22
17 55 66
17 56 218
17 57 138
17 58 16
17 59 139
17 60 6
17 61 99
17 62 91
17 63 165
17 64 35
17 65 76
17 66 84
17 67 176
17 68 241
17 69 57
17 70 46
17 71 18
17 72 74
17 73 29
17 74 133
17 75 200
17 76 153
17 77 67
17 78 220
17 79 124
17 80 219
17 81 67
17 82 124
17 83 217
17 84 182
17 85 224
17 86 131
17 87 114
17 88 249
17 89 153
17 90 206
18 19 44
18 20 39
18 21 17
18 22 121
18 23 140
18 24 53
18 25 42
18 26 185
18 27 173
18 28 67
18 29 226
18 30 30
18 31 132
18 32 103
18 33 269
18 34 163
18 35 112
18 36 234
18 37 218
18 38 63
18 39 183
18 40 199
18 41 95
18 42 82
18 43 49
18 44 263
18 45 216
18 46 102
18 47 261
18 48 173
18 49 37
18 50 107
18 51 188
18 52 146
18 53 110
18 54 244
18 55 256
18 56 120
18 57 157
18 58 32
18 59 214
18 60 85
18 61 130
18 62 154
18 63 86
18 64 14
18 65 60
18 66 61
18 67 30
18 68 40
18 69 133
18 70 268
18 71 37
18 72 253
18 73 122
18 74 184
18 75 264
18 76 184
18 77 119
18 78 103
18 79 56
18 80 169
18 81 199
18 82 109
18 83 122
18 84 18
18 85 155
18 86 83
18 87 227
18 88 206
18 89 244
18 90 5
19 20 143
19 21 167
19 22 176
19 23 41
19 24 162
19 25 144
19 26 101
19 27 158
19 28 231
19 29 164
19 30 152
19 31 182
19 32 200
19 33 12
19 34 225
19 35 209
19 36 239
19 37 96
19 38 89
19 39 253
19 40 208
19 41 118
19 42 130
19 43 177
19 44 221
19 45 198
19 46 224
19 47 15
19 48 1
19 49 148
19 50 176
19 51 195
19 52 48
19 53 110
19 54 43
19 55 123
19 56 242
19 57 78
19 58 110
19 59 107
19 60 23
19 61 127
19 62 186
19 63 131
19 64 211
19 65 214
19 66 60
19 67 38
19 68 146
19 69 151
19 70 71
19 71 24
19 72 192
19 73 72
19 74 206
19 75 132
19 76 230
19 77 81
19 78 162
19 79 189
19 80 191
19 81 200
19 82 245
19 83 182
19 84 265
19 85 165
19 86 150
19 87 29
19 88 23
19 89 210
19 90 16
20 21 33
20 22 129
20 23 63
20 24 68
20 25 58
20 26 256
20 27 201
20 28 179
20 29 244
20 30 59
20 31 253
20 32 120
20 33 85
20 34 131
20 35 222
20 36 211
20 37 250
20 38 133
20 39 45
20 40 226
20 41 83
20 42 62
20 43 153
20 44 50
20 45 25
20 46 268
20 47 53
20 48 209
20 49 21
20 50 90
20 51 256
20 52 202
20 53 127
20 54 94
20 55 73
20 56 232
20 57 85
20 58 93
20 59 236
20 60 129
20 61 252
20 62 51
20 63 15
20 64 197
20 65 23
20 66 97
20 67 232
20 68 56
20 69 20
20 70 74
20 71 223
20 72 9
20 73 163
20 74 207
20 75 197
20 76 18
20 77 103
20 78 120
20 79 137
20 80 1
20 81 15
20 82 218
20 83 139
20 84 101
20 85 203
20 86 44
20 87 109
20 88 38
20 89 3
20 90 178
21 22 15
21 23 9
21 24 161
21 25 108
21 26 189
21 27 111
21 28 259
21 29 196
21 30 176
21 31 106
21 32 69
21 33 113
21 34 100
21 35 229
21 36 27
21 37 222
21 38 218
21 39 3
21 40 240
21 41 72
21 42 56
21 43 259
21 44 239
21 45 45
21 46 59
21 47 247
21 48 85
21 49 14
21 50 19
21 51 233
21 52 240
21 53 183
21 54 217
21 55 150
21 56 58
21 57 224
21 58 154
21 59 131
21 60 178
21 61 163
21 62 227
21 63 257
21 64 121
21 65 203
21 66 143
21 67 170
21 68 205
21 69 245
21 70 229
21 71 17
21 72 30
21 73 117
21 74 83
21 75 148
21 76 233
21 77 79
21 78 197
21 79 18
21 80 94
21 81 209
21 82 254
21 83 189
21 84 48
21 85 197
21 86 48
21 87 200
21 88 89
21 89 222
21 90 138
22 23 212
22 24 217
22 25 112
22 26 173
22 27 187
22 28 93
22 29 25
22 30 154
22 31 27
22 32 9
22 33 82
22 34 155
22 35 266
22 36 262
22 37 185
22 38 151
22 39 111
22 40 18
22 41 12
22 42 238
22 43 70
22 44 242
22 45 255
22 46 227
22 47 207
22 48 241
22 49 236
22 50 168
22 51 76
22 52 100
22 53 250
22 54 96
22 55 97
22 56 100
22 57 198
22 58 73
22 59 264
22 60 261
22 61 50
22 62 147
22 63 92
22 64 151
22 65 98
22 66 26
22 67 105
22 68 155
22 69 171
22 70 118
22 71 120
22 72 103
22 73 20
22 74 245
22 75 232
22 76 71
22 77 239
22 78 241
22 79 42
22 80 197
22 81 206
22 82 194
22 83 144
22 84 65
22 85 152
22 86 18
22 87 130
22 88 25
22 89 23
22 90 251
23 24 249
23 25 160
23 26 54
23 27 42
23 28 217
23 29 125
23 30 254
23 31 256
23 32 80
23 33 209
23 34 13
23 35 252
23 36 135
23 37 13
23 38 256
23 39 269
23 40 266
23 41 66
23 42 64
23 43 202
23 44 193
23 45 67
23 46 250
23 47 16
23 48 109
23 49 50
23 50 46
23 51 105
23 52 131
23 53 160
23 54 186
23 55 266
23 56 187
23 57 10
23 58 170
23 59 11
23 60 93
23 61 194
23 62 259
23 63 102
23 64 100
23 65 162
23 66 128
23 67 74
23 68 11
23 69 130
23 70 172
23 71 148
23 72 247
23 73 225
23 74 122
23 75 81
23 76 139
23 77 224
23 78 97
23 79 66
23 80 239
23 81 169
23 82 150
23 83 237
23 84 128
23 85 61
23 86 119
23 87 93
23 88 57
23 89 41
23 90 14
24 25 259
24 26 184
24 27 172
24 28 226
24 29 128
24 30 181
24 31 120
24 32 229
24 33 186
24 34 152
24 35 182
24 36 232
24 37 212
24 38 38
24 39 3
24 40 55
24 41 128
24 42 66
24 43 212
24 44 221
24 45 103
24 46 201
24 47 26
24 48 158
24 49 147
24 50 33
24 51 198
24 52 267
24 53 244
24 54 56
24 55 147
24 56 48
24 57 240
24 58 17
24 59 20
24 60 267
24 61 136
24 62 152
24 63 253
24 64 1
24 65 109
24 66 231
24 67 224
24 68 31
24 69 114
24 70 61
24 71 218
24 72 66
24 73 92
24 74 30
24 75 29
24 76 221
24 77 167
24 78 49
24 79 221
24 80 50
24 81 255
24 82 62
24 83 157
24 84 259
24 85 155
24 86 120
24 87 255
24 88 131
24 89 241
24 90 226
25 26 136
25 27 85
25 28 64
25 29 168
25 30 263
25 31 62
25 32 220
25 33 44
25 34 189
25 35 171
25 36 224
25 37 74
25 38 35
25 39 27
25 40 256
25 41 167
25 42 96
25 43 163
25 44 29
25 45 166
25 46 95
25 47 198
25 48 127
25 49 27
25 50 269
25 51 211
25 52 62
25 53 7
25 54 70
25 55 9
25 56 75
25 57 57
25 58 196
25 59 77
25 60 169
25 61 5
25 62 3
25 63 18
25 64 65
25 65 46
25 66 137
25 67 109
25 68 267
25 69 56
25 70 173
25 71 253
25 72 129
25 73 199
25 74 51
25 75 175
25 76 181
25 77 99
25 78 156
25 79 150
25 80 173
25 81 19
25 82 254
25 83 184
25 84 8
25 85 218
25 86 95
25 87 207
25 88 230
25 89 31
25 90 86
26 27 251
26 28 73
26 29 176
26 30 68
26 31 202
26 32 212
26 33 29
26 34 52
26 35 256
26 36 13
26 37 200
26 38 111
26 39 265
26 40 170
26 41 130
26 42 182
26 43 52
26 44 113
26 45 70
26 46 93
26 47 152
26 48 147
26 49 177
26 50 22
26 51 49
26 52 102
26 53 70
26 54 200
26 55 189
26 56 237
26 57 247
26 58 121
26 59 184
26 60 62
26 61 206
26 62 238
26 63 57
26 64 209
26 65 190
26 66 72
26 67 93
26 68 223
26 69 198
26 70 91
26 71 54
26 72 218
26 73 124
26 74 127
26 75 239
26 76 16
26 77 10
26 78 123
26 79 266
26 80 54
26 81 1
26 82 182
26 83 92
26 84 106
26 85 162
26 86 10
26 87 151
26 88 161
26 89 114
26 90 14
27 28 136
27 29 11
27 30 127
27 31 53
27 32 223
27 33 125
27 34 11
27 35 138
27 36 214
27 37 255
27 38 145
27 39 47
27 40 261
27 41 252
27 42 139
27 43 141
27 44 229
27 45 9
27 46 232
27 47 259
27 48 31
27 49 158
27 50 225
27 51 21
27 52 64
27 53 227
27 54 173
27 55 66
27 56 110
27 57 72
27 58 142
27 59 51
27 60 40
27 61 14
27 62 178
27 63 59
27 64 200
27 65 128
27 66 178
27 67 71
27 68 193
27 69 170
27 70 83
27 71 74
27 72 136
27 73 236
27 74 191
27 75 96
27 76 225
27 77 133
27 78 261
27 79 103
27 80 20
27 81 252
27 82 40
27 83 20
27 84 161
27 85 253
27 86 205
27 87 42
27 88 16
27 89 231
27 90 38
28 29 246
28 30 58
28 31 175
28 32 112
28 33 256
28 34 133
28 35 35
28 36 249
28 37 60
28 38 111
28 39 109
28 40 230
28 41 265
28 42 110
28 43 117
28 44 261
28 45 40
28 46 61
28 47 90
28 48 12
28 49 23
28 50 243
28 51 37
28 52 190
28 53 43
28 54 86
28 55 234
28 56 79
28 57 175
28 58 194
28 59 60
28 60 66
28 61 27
28 62 66
28 63 36
28 64 216
28 65 33
28 66 107
28 67 198
28 68 99
28 69 40
28 70 194
28 71 31
28 72 132
28 73 63
28 74 77
28 75 257
28 76 211
28 77 236
28 78 109
28 79 145
28 80 163
28 81 251
28 82 265
28 83 257
28 84 217
28 85 89
28 86 102
28 87 69
28 88 146
28 89 263
28 90 154
29 30 180
29 31 89
29 32 261
29 33 213
29 34 49
29 35 69
29 36 145
29 37 118
29 38 262
29 39 237
29 40 26
29 41 251
29 42 232
29 43 134
29 44 106
29 45 97
29 46 108
29 47 235
29 48 56
29 49 72
29 50 243
29 51 106
29 52 57
29 53 162
29 54 226
29 55 175
29 56 110
29 57 13
29 58 256
29 59 178
29 60 43
29 61 206
29 62 176
29 63 142
29 64 142
29 65 105
29 66 186
29 67 122
29 68 107
29 69 135
29 70 38
29 71 179
29 72 97
29 73 174
29 74 206
29 75 246
29 76 28
29 77 262
29 78 60
29 79 129
29 80 78
29 81 252
29 82 221
29 83 265
29 84 204
29 85 128
29 86 167
29 87 262
29 88 155
29 89 194
29 90 65
30 31 119
30 32 81
30 33 50
30 34 128
30 35 121
30 36 54
30 37 173
30 38 193
30 39 245
30 40 244
30 41 31
30 42 65
30 43 32
30 44 238
30 45 116
30 46 190
30 47 179
30 48 148
30 49 46
30 50 246
30 51 7
30 52 66
30 53 237
30 54 122
30 55 220
30 56 49
30 57 22
30 58 5
30 59 54
30 60 64
30 61 130
30 62 83
30 63 110
30 64 79
30 65 109
30 66 228
30 67 40
30 68 0
30 69 251
30 70 38
30 71 160
30 72 248
30 73 264
30 74 4
30 75 73
30 76 211
30 77 147
30 78 145
30 79 97
30 80 183
30 81 214
30 82 136
30 83 109
30 84 193
30 85 55
30 86 134
30 87 255
30 88 267
30 89 86
30 90 54
31 32 224
31 33 4
31 34 142
31 35 261
31 36 47
31 37 249
31 38 99
31 39 6
31 40 69
31 41 162
31 42 114
31 43 54
31 44 211
31 45 145
31 46 11
31 47 14
31 48 251
31 49 264
31 50 243
31 51 102
31 52 37
31 53 182
31 54 219
31 55 148
31 56 51
31 57 29
31 58 161
31 59 226
31 60 88
31 61 69
31 62 194
31 63 257
31 64 138
31 65 42
31 66 168
31 67 259
31 68 125
31 69 131
31 70 223
31 71 82
31 72 85
31 73 204
31 74 203
31 75 217
31 76 125
31 77 142
31 78 7
31 79 44
31 80 269
31 81 73
31 82 180
31 83 208
31 84 129
31 85 109
31 86 69
31 87 243
31 88 46
31 89 120
31 90 63
32 33 261
32 34 19
32 35 168
32 36 197
32 37 207
32 38 211
32 39 265
32 40 9
32 41 30
32 42 184
32 43 138
32 44 169
32 45 23
32 46 121
32 47 105
32 48 157
32 49 70
32 50 171
32 51 163
32 52 206
32 53 129
32 54 57
32 55 206
32 56 239
32 57 92
32 58 204
32 59 8
32 60 87
32 61 250
32 62 95
32 63 213
32 64 126
32 65 204
32 66 219
32 67 259
32 68 174
32 69 88
32 70 173
32 71 218
32 72 58
32 73 51
32 74 176
32 75 87
32 76 43
32 77 228
32 78 1
32 79 223
32 80 96
32 81 114
32 82 180
32 83 46
32 84 106
32 85 171
32 86 127
32 87 51
32 88 160
32 89 89
32 90 159
33 34 19
33 35 113
33 36 92
33 37 18
33 38 147
33 39 193
33 40 257
33 41 0
33 42 151
33 43 17
33 44 199
33 45 67
33 46 127
33 47 149
33 48 90
33 49 34
33 50 245
33 51 250
33 52 87
33 53 205
33 54 156
33 55 26
33 56 83
33 57 124
33 58 143
33 59 119
33 60 128
33 61 27
33 62 139
33 63 226
33 64 23
33 65 56
33 66 47
33 67 263
33 68 231
33 69 132
33 70 199
33 71 230
33 72 234
33 73 107
33 74 51
33 75 20
33 76 233
33 77 175
33 78 96
33 79 185
33 80 207
33 81 213
33 82 72
33 83 96
33 84 165
33 85 50
33 86 44
33 87 253
33 88 111
33 89 216
33 90 253
34 35 134
34 36 203
34 37 215
34 38 100
34 39 214
34 40 189
34 41 175
34 42 149
34 43 180
34 44 108
34 45 211
34 46 46
34 47 159
34 48 102
34 49 223
34 50 36
34 51 84
34 52 233
34 53 113
34 54 156
34 55 251
34 56 33
34 57 210
34 58 230
34 59 67
34 60 240
34 61 106
34 62 205
34 63 197
34 64 243
34 65 113
34 66 61
34 67 208
34 68 72
34 69 48
34 70 199
34 71 0
34 72 94
34 73 28
34 74 134
34 75 87
34 76 78
34 77 33
34 78 75
34 79 121
34 80 3
34 81 16
34 82 44
34 83 229
34 84 195
34 85 4
34 86 77
34 87 227
34 88 225
34 89 85
34 90 250
35 36 248
35 37 205
35 38 57
35 39 177
35 40 135
35 41 129
35 42 8
35 43 114
35 44 134
35 45 189
35 46 200
35 47 66
35 48 43
35 49 210
35 50 259
35 51 149
35 52 63
35 53 244
35 54 140
35 55 186
35 56 248
35 57 86
35 58 181
35 59 82
35 60 81
35 61 209
35 62 211
35 63 108
35 64 110
35 65 9
35 66 191
35 67 149
35 68 60
35 69 88
35 70 264
35 71 18
35 72 129
35 73 88
35 74 56
35 75 39
35 76 65
35 77 265
35 78 42
35 79 102
35 80 97
35 81 145
35 82 216
35 83 95
35 84 207
35 85 164
35 86 228
35 87 216
35 88 169
35 89 149
35 90 265
36 37 176
36 38 33
36 39 38
36 40 242
36 41 188
36 42 11
36 43 40
36 44 188
36 45 167
36 46 95
36 47 153
36 48 202
36 49 239
36 50 75
36 51 26
36 52 194
36 53 127
36 54 250
36 55 209
36 56 61
36 57 168
36 58 184
36 59 142
36 60 191
36 61 192
36 62 51
36 63 117
36 64 43
36 65 128
36 66 20
36 67 20
36 68 152
36 69 185
36 70 63
36 71 235
36 72 48
36 73 178
36 74 51
36 75 97
36 76 190
36 77 229
36 78 219
36 79 150
36 80 36
36 81 196
36 82 99
36 83 175
36 84 100
36 85 49
36 86 76
36 87 218
36 88 195
36 89 194
36 90 208
37 38 125
37 39 128
37 40 268
37 41 43
37 42 68
37 43 5
37 44 10
37 45 34
37 46 16
37 47 210
37 48 175
37 49 104
37 50 48
37 51 177
37 52 169
37 53 194
37 54 113
37 55 46
37 56 175
37 57 161
37 58 1
37 59 142
37 60 216
37 61 152
37 62 93
37 63 89
37 64 80
37 65 221
37 66 152
37 67 134
37 68 242
37 69 146
37 70 148
37 71 188
37 72 136
37 73 226
37 74 257
37 75 40
37 76 219
37 77 49
37 78 27
37 79 150
37 80 95
37 81 135
37 82 82
37 83 211
37 84 24
37 85 66
37 86 26
37 87 99
37 88 88
37 89 163
37 90 49
38 39 160
38 40 251
38 41 57
38 42 200
38 43 161
38 44 107
38 45 60
38 46 9
38 47 177
38 48 12
38 49 12
38 50 252
38 51 15
38 52 227
38 53 165
38 54 132
38 55 181
38 56 10
38 57 32
38 58 114
38 59 200
38 60 78
38 61 109
38 62 117
38 63 7
38 64 225
38 65 136
38 66 225
38 67 30
38 68 244
38 69 217
38 70 213
38 71 159
38 72 144
38 73 222
38 74 46
38 75 46
38 76 229
38 77 214
38 78 30
38 79 16
38 80 265
38 81 66
38 82 28
38 83 34
38 84 144
38 85 9
38 86 223
38 87 249
38 88 269
38 89 194
38 90 137
39 40 140
39 41 241
39 42 98
39 43 32
39 44 263
39 45 196
39 46 33
39 47 97
39 48 159
39 49 241
39 50 102
39 51 224
39 52 268
39 53 186
39 54 234
39 55 248
39 56 191
39 57 123
39 58 41
39 59 236
39 60 133
39 61 169
39 62 95
39 63 33
39 64 225
39 65 144
39 66 22
39 67 166
39 68 3
39 69 40
39 70 198
39 71 84
39 72 155
39 73 67
39 74 187
39 75 32
39 76 189
39 77 12
39 78 191
39 79 128
39 80 99
39 81 127
39 82 92
39 83 29
39 84 232
39 85 165
39 86 151
39 87 118
39 88 113
39 89 176
39 90 263
40 41 115
40 42 80
40 43 123
40 44 150
40 45 204
40 46 35
40 47 183
40 48 50
40 49 186
40 50 237
40 51 22
40 52 237
40 53 148
40 54 261
40 55 57
40 56 7
40 57 104
40 58 38
40 59 156
40 60 42
40 61 109
40 62 121
40 63 24
40 64 246
40 65 31
40 66 81
40 67 151
40 68 157
40 69 87
40 70 119
40 71 216
40 72 252
40 73 21
40 74 46
40 75 50
40 76 7
40 77 77
40 78 174
40 79 2
40 80 244
40 81 173
40 82 93
40 83 232
40 84 20
40 85 208
40 86 118
40 87 260
40 88 10
40 89 51
40 90 187
41 42 55
41 43 26
41 44 114
41 45 257
41 46 34
41 47 188
41 48 95
41 49 59
41 50 266
41 51 96
41 52 196
41 53 210
41 54 156
41 55 21
41 56 150
41 57 130
41 58 56
41 59 109
41 60 168
41 61 238
41 62 4
41 63 120
41 64 162
41 65 42
41 66 261
41 67 234
41 68 109
41 69 185
41 70 36
41 71 68
41 72 61
41 73 74
41 74 199
41 75 145
41 76 162
41 77 13
41 78 68
41 79 49
41 80 143
41 81 260
41 82 105
41 83 71
41 84 137
41 85 29
41 86 211
41 87 200
41 88 65
41 89 253
41 90 7
42 43 124
42 44 158
42 45 90
42 46 163
42 47 249
42 48 121
42 49 75
42 50 156
42 51 127
42 52 2
42 53 0
42 54 43
42 55 221
42 56 180
42 57 235
42 58 257
42 59 19
42 60 22
42 61 135
42 62 72
42 63 217
42 64 15
42 65 194
42 66 195
42 67 265
42 68 163
42 69 73
42 70 220
42 71 44
42 72 25
42 73 151
42 74 161
42 75 194
42 76 139
42 77 22
42 78 134
42 79 197
42 80 231
42 81 197
42 82 263
42 83 187
42 84 84
42 85 63
42 86 100
42 87 127
42 88 26
42 89 84
42 90 5
43 44 122
43 45 233
43 46 235
43 47 43
43 48 231
43 49 231
43 50 59
43 51 61
43 52 55
43 53 263
43 54 181
43 55 62
43 56 260
43 57 241
43 58 211
43 59 199
43 60 269
43 61 168
43 62 105
43 63 218
43 64 194
43 65 46
43 66 192
43 67 144
43 68 85
43 69 128
43 70 109
43 71 166
43 72 209
43 73 133
43 74 92
43 75 63
43 76 157
43 77 122
43 78 204
43 79 163
43 80 153
43 81 122
43 82 12
43 83 37
43 84 205
43 85 246
43 86 110
43 87 258
43 88 239
43 89 158
43 90 63
44 45 215
44 46 29
44 47 222
44 48 267
44 49 174
44 50 166
44 51 116
44 52 228
44 53 237
44 54 230
44 55 109
44 56 87
44 57 5
44 58 2
44 59 221
44 60 127
44 61 184
44 62 178
44 63 191
44 64 105
44 65 126
44 66 132
44 67 16
44 68 115
44 69 144
44 70 214
44 71 5
44 72 77
44 73 263
44 74 209
44 75 174
44 76 6
44 77 160
44 78 115
44 79 85
44 80 197
44 81 122
44 82 192
44 83 65
44 84 204
44 85 122
44 86 101
44 87 245
44 88 216
44 89 34
44 90 90
45 46 4
45 47 241
45 48 151
45 49 81
45 50 48
45 51 166
45 52 235
45 53 147
45 54 226
45 55 90
45 56 134
45 57 85
45 58 100
45 59 188
45 60 104
45 61 251
45 62 146
45 63 29
45 64 240
45 65 231
45 66 238
45 67 145
45 68 174
45 69 31
45 70 39
45 71 105
45 72 112
45 73 153
45 74 59
45 75 29
45 76 92
45 77 138
45 78 117
45 79 59
45 80 216
45 81 203
45 82 140
45 83 80
45 84 165
45 85 226
45 86 18
45 87 59
45 88 149
45 89 259
45 90 255
46 47 208
46 48 218
46 49 255
46 50 182
46 51 2
46 52 126
46 53 120
46 54 141
46 55 111
46 56 227
46 57 123
46 58 149
46 59 88
46 60 33
46 61 218
46 62 110
46 63 15
46 64 172
46 65 206
46 66 217
46 67 196
46 68 164
46 69 209
46 70 225
46 71 181
46 72 62
46 73 129
46 74 183
46 75 37
46 76 244
46 77 127
46 78 131
46 79 199
46 80 155
46 81 118
46 82 234
46 83 267
46 84 197
46 85 105
46 86 218
46 87 6
46 88 61
46 89 133
46 90 52
47 48 90
47 49 58
47 50 190
47 51 212
47 52 197
47 53 26
47 54 128
47 55 212
47 56 215
47 57 24
47 58 140
47 59 80
47 60 182
47 61 246
47 62 252
47 63 129
47 64 267
47 65 234
47 66 104
47 67 148
47 68 143
47 69 82
47 70 258
47 71 269
47 72 260
47 73 35
47 74 35
47 75 250
47 76 214
47 77 62
47 78 35
47 79 126
47 80 61
47 81 98
47 82 200
47 83 96
47 84 239
47 85 259
47 86 0
47 87 164
47 88 100
47 89 203
47 90 73
48 49 172
48 50 137
48 51 171
48 52 8
48 53 79
48 54 189
48 55 102
48 56 25
48 57 39
48 58 229
48 59 128
48 60 261
48 61 42
48 62 183
48 63 90
48 64 202
48 65 30
48 66 224
48 67 5
48 68 175
48 69 69
48 70 26
48 71 246
48 72 92
48 73 244
48 74 131
48 75 166
48 76 4
48 77 75
48 78 80
48 79 57
48 80 193
48 81 80
48 82 24
48 83 14
48 84 193
48 85 227
48 86 151
48 87 203
48 88 12
48 89 214
48 90 132
49 50 244
49 51 197
49 52 24
49 53 163
49 54 25
49 55 211
49 56 146
49 57 17
49 58 267
49 59 208
49 60 260
49 61 61
49 62 202
49 63 48
49 64 138
49 65 179
49 66 231
49 67 253
49 68 69
49 69 231
49 70 155
49 71 104
49 72 106
49 73 129
49 74 151
49 75 145
49 76 162
49 77 60
49 78 252
49 79 69
49 80 115
49 81 236
49 82 257
49 83 18
49 84 177
49 85 61
49 86 238
49 87 121
49 88 43
49 89 113
49 90 70
50 51 255
50 52 170
50 53 228
50 54 140
50 55 225
50 56 197
50 57 252
50 58 75
50 59 168
50 60 267
50 61 212
50 62 221
50 63 85
50 64 108
50 65 167
50 66 245
50 67 41
50 68 11
50 69 12
50 70 243
50 71 101
50 72 76
50 73 81
50 74 46
50 75 237
50 76 253
50 77 163
50 78 163
50 79 206
50 80 79
50 81 251
50 82 29
50 83 83
50 84 264
50 85 243
50 86 157
50 87 28
50 88 95
50 89 174
50 90 58
51 52 154
51 53 47
51 54 79
51 55 214
51 56 55
51 57 126
51 58 165
51 59 260
51 60 54
51 61 221
51 62 121
51 63 266
51 64 225
51 65 240
51 66 210
51 67 167
51 68 27
51 69 176
51 70 73
51 71 83
51 72 0
51 73 230
51 74 88
51 75 238
51 76 257
51 77 85
51 78 27
51 79 157
51 80 133
51 81 253
51 82 102
51 83 247
51 84 146
51 85 5
51 86 205
51 87 102
51 88 97
51 89 30
51 90 222
52 53 113
52 54 205
52 55 56
52 56 134
52 57 129
52 58 109
52 59 241
52 60 188
52 61 23
52 62 254
52 63 6
52 64 229
52 65 84
52 66 7
52 67 100
52 68 39
52 69 21
52 70 82
52 71 186
52 72 64
52 73 211
52 74 62
52 75 193
52 76 244
52 77 67
52 78 1
52 79 219
52 80 110
52 81 159
52 82 3
52 83 63
52 84 6
52 85 6
52 86 174
52 87 186
52 88 109
52 89 260
52 90 99
53 54 79
53 55 80
53 56 135
53 57 194
53 58 116
53 59 67
53 60 237
53 61 140
53 62 81
53 63 26
53 64 168
53 65 151
53 66 31
53 67 41
53 68 51
53 69 226
53 70 248
53 71 11
53 72 206
53 73 52
53 74 180
53 75 187
53 76 261
53 77 98
53 78 30
53 79 188
53 80 209
53 81 95
53 82 231
53 83 75
53 84 30
53 85 121
53 86 12
53 87 212
53 88 143
53 89 229
53 90 194
54 55 157
54 56 31
54 57 133
54 58 152
54 59 200
54 60 121
54 61 258
54 62 93
54 63 190
54 64 2
54 65 74
54 66 175
54 67 246
54 68 262
54 69 13
54 70 161
54 71 188
54 72 81
54 73 29
54 74 130
54 75 110
54 76 172
54 77 136
54 78 257
54 79 193
54 80 4
54 81 88
54 82 150
54 83 196
54 84 154
54 85 155
54 86 77
54 87 41
54 88 215
54 89 187
54 90 256
55 56 251
55 57 173
55 58 227
55 59 178
55 60 61
55 61 4
55 62 254
55 63 184
55 64 123
55 65 49
55 66 12
55 67 99
55 68 36
55 69 236
55 70 9
55 71 135
55 72 36
55 73 61
55 74 128
55 75 165
55 76 164
55 77 268
55 78 192
55 79 219
55 80 63
55 81 186
55 82 162
55 83 205
55 84 53
55 85 237
55 86 15
55 87 86
55 88 31
55 89 171
55 90 208
56 57 34
56 58 2
56 59 224
56 60 182
56 61 250
56 62 195
56 63 29
56 64 226
56 65 13
56 66 146
56 67 104
56 68 220
56 69 182
56 70 91
56 71 166
56 72 234
56 73 42
56 74 73
56 75 149
56 76 155
56 77 100
56 78 105
56 79 110
56 80 30
56 81 187
56 82 21
56 83 88
56 84 65
56 85 199
56 86 78
56 87 40
56 88 105
56 89 207
56 90 137
57 58 75
57 59 261
57 60 174
57 61 140
57 62 234
57 63 120
57 64 228
57 65 72
57 66 185
57 67 172
57 68 87
57 69 231
57 70 27
57 71 67
57 72 157
57 73 255
57 74 106
57 75 21
57 76 247
57 77 205
57 78 254
57 79 79
57 80 73
57 81 216
57 82 98
57 83 227
57 84 142
57 85 159
57 86 54
57 87 43
57 88 269
57 89 53
57 90 48
58 59 214
58 60 246
58 61 4
58 62 255
58 63 84
58 64 71
58 65 155
58 66 59
58 67 264
58 68 211
58 69 88
58 70 117
58 71 41
58 72 187
58 73 98
58 74 122
58 75 93
58 76 246
58 77 180
58 78 28
58 79 170
58 80 175
58 81 107
58 82 193
58 83 258
58 84 163
58 85 14
58 86 74
58 87 164
58 88 247
58 89 197
58 90 266
59 60 239
59 61 186
59 62 151
59 63 46
59 64 140
59 65 61
59 66 102
59 67 150
59 68 176
59 69 105
59 70 189
59 71 208
59 72 60
59 73 154
59 74 256
59 75 222
59 76 201
59 77 135
59 78 173
59 79 260
59 80 80
59 81 256
59 82 15
59 83 154
59 84 257
59 85 227
59 86 209
59 87 175
59 88 176
59 89 177
59 90 54
60 61 239
60 62 143
60 63 171
60 64 22
60 65 254
60 66 6
60 67 86
60 68 28
60 69 17
60 70 187
60 71 166
60 72 116
60 73 105
60 74 244
60 75 184
60 76 117
60 77 119
60 78 121
60 79 112
60 80 13
60 81 104
60 82 153
60 83 28
60 84 27
60 85 100
60 86 2
60 87 31
60 88 38
60 89 204
60 90 153
61 62 31
61 63 260
61 64 4
61 65 31
61 66 81
61 67 203
61 68 121
61 69 138
61 70 159
61 71 176
61 72 264
61 73 121
61 74 222
61 75 254
61 76 236
61 77 37
61 78 236
61 79 252
61 80 138
61 81 241
61 82 36
61 83 19
61 84 171
61 85 196
61 86 164
61 87 216
61 88 240
61 89 59
61 90 254
62 63 5
62 64 116
62 65 66
62 66 9
62 67 120
62 68 18
62 69 186
62 70 210
62 71 64
62 72 17
62 73 115
62 74 39
62 75 258
62 76 59
62 77 186
62 78 154
62 79 30
62 80 258
62 81 269
62 82 133
62 83 151
62 84 216
62 85 79
62 86 156
62 87 2
62 88 184
62 89 160
62 90 263
63 64 214
63 65 114
63 66 182
63 67 107
63 68 36
63 69 39
63 70 157
63 71 29
63 72 43
63 73 224
63 74 53
63 75 149
63 76 234
63 77 120
63 78 214
63 79 94
63 80 199
63 81 76
63 82 165
63 83 256
63 84 40
63 85 66
63 86 148
63 87 69
63 88 124
63 89 2
63 90 86
64 65 203
64 66 137
64 67 214
64 68 73
64 69 238
64 70 28
64 71 234
64 72 33
64 73 213
64 74 160
64 75 96
64 76 127
64 77 15
64 78 181
64 79 71
64 80 260
64 81 155
64 82 31
64 83 101
64 84 19
64 85 260
64 86 48
64 87 232
64 88 219
64 89 29
64 90 114
65 66 63
65 67 216
65 68 257
65 69 53
65 70 67
65 71 46
65 72 142
65 73 164
65 74 243
65 75 107
65 76 125
65 77 200
65 78 216
65 79 57
65 80 100
65 81 186
65 82 95
65 83 260
65 84 15
65 85 197
65 86 264
65 87 38
65 88 173
65 89 250
65 90 217
66 67 46
66 68 57
66 69 17
66 70 238
66 71 130
66 72 95
66 73 74
66 74 225
66 75 0
66 76 110
66 77 205
66 78 123
66 79 232
66 80 225
66 81 188
66 82 232
66 83 123
66 84 136
66 85 251
66 86 23
66 87 124
66 88 32
66 89 259
66 90 175
67 68 140
67 69 36
67 70 250
67 71 265
67 72 25
67 73 13
67 74 195
67 75 113
67 76 187
67 77 7
67 78 51
67 79 176
67 80 257
67 81 222
67 82 167
67 83 199
67 84 80
67 85 53
67 86 110
67 87 180
67 88 214
67 89 204
67 90 144
68 69 156
68 70 90
68 71 25
68 72 8
68 73 13
68 74 27
68 75 230
68 76 177
68 77 51
68 78 210
68 79 247
68 80 50
68 81 5
68 82 239
68 83 119
68 84 105
68 85 78
68 86 131
68 87 258
68 88 225
68 89 159
68 90 86
69 70 0
69 71 156
69 72 116
69 73 131
69 74 142
69 75 2
69 76 19
69 77 75
69 78 154
69 79 106
69 80 114
69 81 253
69 82 12
69 83 13
69 84 63
69 85 38
69 86 145
69 87 244
69 88 109
69 89 44
69 90 40
70 71 99
70 72 17
70 73 237
70 74 106
70 75 98
70 76 108
70 77 59
70 78 162
70 79 23
70 80 224
70 81 50
70 82 1
70 83 144
70 84 110
70 85 50
70 86 158
70 87 262
70 88 55
70 89 106
70 90 158
71 72 244
71 73 104
71 74 150
71 75 58
71 76 50
71 77 30
71 78 111
71 79 83
71 80 3
71 81 127
71 82 80
71 83 51
71 84 231
71 85 93
71 86 268
71 87 67
71 88 219
71 89 83
71 90 67
72 73 32
72 74 128
72 75 257
72 76 119
72 77 213
72 78 209
72 79 153
72 80 182
72 81 25
72 82 33
72 83 71
72 84 124
72 85 114
72 86 196
72 87 117
72 88 141
72 89 195
72 90 213
73 74 126
73 75 197
73 76 162
73 77 120
73 78 147
73 79 132
73 80 79
73 81 167
73 82 97
73 83 143
73 84 127
73 85 28
73 86 247
73 87 84
73 88 14
73 89 109
73 90 219
74 75 138
74 76 176
74 77 177
74 78 196
74 79 32
74 80 219
74 81 243
74 82 114
74 83 104
74 84 19
74 85 193
74 86 195
74 87 104
74 88 160
74 89 171
74 90 168
75 76 114
75 77 42
75 78 242
75 79 73
75 80 249
75 81 71
75 82 225
75 83 69
75 84 84
75 85 133
75 86 64
75 87 216
75 88 128
75 89 180
75 90 9
76 77 211
76 78 20
76 79 252
76 80 69
76 81 188
76 82 96
76 83 206
76 84 180
76 85 144
76 86 112
76 87 48
76 88 237
76 89 63
76 90 206
77 78 71
77 79 211
77 80 181
77 81 230
77 82 76
77 83 260
77 84 4
77 85 249
77 86 237
77 87 151
77 88 79
77 89 65
77 90 214
78 79 268
78 80 162
78 81 252
78 82 268
78 83 123
78 84 263
78 85 62
78 86 157
78 87 75
78 88 52
78 89 184
78 90 84
79 80 102
79 81 179
79 82 149
79 83 61
79 84 81
79 85 130
79 86 1
79 87 10
79 88 63
79 89 125
79 90 100
80 81 134
80 82 250
80 83 6
80 84 205
80 85 109
80 86 110
80 87 223
80 88 138
80 89 254
80 90 181
81 82 177
81 83 162
81 84 236
81 85 67
81 86 168
81 87 118
81 88 76
81 89 8
81 90 241
82 83 29
82 84 174
82 85 77
82 86 9
82 87 234
82 88 138
82 89 121
82 90 205
83 84 251
83 85 137
83 86 221
83 87 238
83 88 137
83 89 81
83 90 239
84 85 129
84 86 98
84 87 81
84 88 103
84 89 32
84 90 129
85 86 34
85 87 106
85 88 129
85 89 7
85 90 55
86 87 243
86 88 157
86 89 212
86 90 150
87 88 174
87 89 205
87 90 88
88 89 157
88 90 223
89 90 33
